
Gurobi 10.0.3 (linux64, gurobi_cl) logging started Thu Nov  9 11:48:21 2023

Set parameter Username
Set parameter TimeLimit to value 3600
Set parameter LogFile to value "RCPSP_1165.log"
Set parameter Threads to value 32
Academic license - for non-commercial use only - expires 2024-10-30
Using license file /home/jrivera6/gurobi-licenses/v1003/compute-0-37/gurobi.lic

Gurobi Optimizer version 10.0.3 build v10.0.3rc0 (linux64)
Copyright (c) 2023, Gurobi Optimization, LLC

Read MPS format model from file RCPSP_1165.mps
Reading time = 0.06 seconds
RCPSP_1165: 42947 rows, 17020 columns, 142862 nonzeros

CPU model: Intel(R) Xeon(R) Gold 6242 CPU @ 2.80GHz, instruction set [SSE2|AVX|AVX2|AVX512]
Thread count: 32 physical cores, 32 logical processors, using up to 32 threads

Optimize a model with 42947 rows, 17020 columns and 142862 nonzeros
Model fingerprint: 0xd9a49425
Variable types: 92 continuous, 16928 integer (16928 binary)
Coefficient statistics:
  Matrix range     [1e+00, 5e+02]
  Objective range  [1e+00, 1e+00]
  Bounds range     [1e+00, 1e+00]
  RHS range        [1e+00, 5e+02]
Presolve removed 8593 rows and 1870 columns (presolve time = 5s) ...
Presolve removed 12896 rows and 3560 columns
Presolve time: 5.93s
Presolved: 30051 rows, 13460 columns, 103968 nonzeros
Variable types: 91 continuous, 13369 integer (13369 binary)
Deterministic concurrent LP optimizer: primal and dual simplex
Showing first log only...


Root simplex log...

Iteration    Objective       Primal Inf.    Dual Inf.      Time
       0    8.0682785e+01   5.885934e-02   1.489277e+08      6s
    2131    8.0000000e+01   0.000000e+00   0.000000e+00      7s
Concurrent spin time: 0.01s

Solved with dual simplex

Root simplex log...

Iteration    Objective       Primal Inf.    Dual Inf.      Time
    4258    8.0000000e+01   0.000000e+00   0.000000e+00      7s

Root relaxation: objective 8.000000e+01, 4258 iterations, 0.46 seconds (0.13 work units)

    Nodes    |    Current Node    |     Objective Bounds      |     Work
 Expl Unexpl |  Obj  Depth IntInf | Incumbent    BestBd   Gap | It/Node Time

     0     0   80.00000    0  240          -   80.00000      -     -    9s
     0     0   81.00000    0  860          -   81.00000      -     -   22s
     0     0   81.00000    0  888          -   81.00000      -     -   24s
     0     0   81.00000    0  942          -   81.00000      -     -   26s
     0     0   81.00000    0 1003          -   81.00000      -     -   28s
     0     0   86.30864    0  649          -   86.30864      -     -   38s
     0     0   86.30864    0  645          -   86.30864      -     -   38s
     0     0   86.30864    0  614          -   86.30864      -     -   39s
     0     0   86.30864    0  839          -   86.30864      -     -   50s
     0     0   86.30864    0  742          -   86.30864      -     -   51s
     0     0   86.30864    0  802          -   86.30864      -     -   54s
     0     0   86.30864    0  803          -   86.30864      -     -   55s
     0     0   86.30864    0  720          -   86.30864      -     -   57s
     0     0   86.30864    0  678          -   86.30864      -     -   57s
     0     0   86.30864    0  806          -   86.30864      -     -   72s
     0     0   86.30864    0  795          -   86.30864      -     -   72s
     0     0   86.30864    0  586          -   86.30864      -     -   83s
     0     0   86.30864    0  572          -   86.30864      -     -   83s
     0     0   86.30864    0  691          -   86.30864      -     -   84s
     0     0   86.30864    0  669          -   86.30864      -     -   85s
     0     0   86.30864    0  343          -   86.30864      -     -   93s
     0     0   86.30864    0  339          -   86.30864      -     -   94s
     0     0   86.30864    0  618          -   86.30864      -     -   96s
     0     0   86.30864    0  487          -   86.30864      -     -   97s
     0     0   86.30864    0  482          -   86.30864      -     -   98s
     0     0   86.30864    0  235          -   86.30864      -     -  117s
     0     0   86.30864    0  871          -   86.30864      -     -  132s
     0     0   86.30864    0  856          -   86.30864      -     -  135s
     0     0   86.30864    0  789          -   86.30864      -     -  136s
     0     0   86.30864    0  787          -   86.30864      -     -  136s
     0     0   86.30864    0  798          -   86.30864      -     -  140s
     0     0   86.30864    0  777          -   86.30864      -     -  141s
     0     0   86.30864    0  537          -   86.30864      -     -  160s
     0     0   86.30864    0  645          -   86.30864      -     -  170s
     0     0   86.30864    0  642          -   86.30864      -     -  170s
     0     0   86.30864    0  353          -   86.30864      -     -  183s
     0     0   86.30864    0  330          -   86.30864      -     -  183s
     0     0   86.30864    0  328          -   86.30864      -     -  183s
     0     0   86.30864    0  471          -   86.30864      -     -  186s
     0     0   86.30864    0  444          -   86.30864      -     -  199s
     0     0   86.30864    0  397          -   86.30864      -     -  199s
     0     0   86.30864    0  665          -   86.30864      -     -  205s
     0     0   86.30864    0  512          -   86.30864      -     -  215s
     0     0   86.30864    0  511          -   86.30864      -     -  216s
     0     0   86.30864    0  511          -   86.30864      -     -  216s
     0     0   86.30864    0  486          -   86.30864      -     -  219s
     0     2   86.30864    0  295          -   86.30864      -     -  244s
     1     5   86.30864    1  438          -   86.30864      -  3217  252s
     3     5   86.30864    2  427          -   86.30864      -  1307  258s
     7     9   86.30864    3  425          -   86.30864      -   729  264s
    12    15   86.30864    4  425          -   86.30864      -   471  269s
    21    29   86.30864    5  792          -   86.30864      -   445  284s
    36    50   86.30864    6  994          -   86.30864      -   583  293s
    65    78   86.30864    7  804          -   86.30864      -   707  307s
    97   106   86.30864    8  789          -   86.30864      -   767  315s
   129   135   86.30864    9  762          -   86.30864      -   609  322s
   161   170   86.30864   10  747          -   86.30864      -   513  327s
   247   241   86.30864   12  715          -   86.30864      -   344  336s
   287   281   86.30864   13  713          -   86.30864      -   306  341s
   335   323   86.30864   14  712          -   86.30864      -   269  347s
   380   369   86.30864   15  714          -   86.30864      -   245  352s
   432   421   86.30864   16  712          -   86.30864      -   221  357s
   488   476   86.30864   17  699          -   86.30864      -   200  363s
   547   526   86.30864   19  697          -   86.30864      -   181  367s
   600   586   86.30864   21  691          -   86.30864      -   169  375s
   660   645   86.30864   22  692          -   86.30864      -   158  383s
   719   705   86.30864   24  706          -   86.30864      -   150  387s
   779   764   86.30864   26  694          -   86.30864      -   141  394s
   839   832   86.30864   28  690          -   86.30864      -   135  405s
   908   902   86.30864   30  679          -   86.30864      -   127  412s
   982   982   86.30864   31  677          -   86.30864      -   121  418s
  1064  1062   86.30864   33  783          -   86.30864      -   115  424s
  1145  1155   86.30864   35  781          -   86.30864      -   110  429s
  1240  1250   86.30864   38  779          -   86.30864      -   104  432s
  1338  1404   86.30864   41  775          -   86.30864      -  98.6  438s
  1495  1551   86.30864   43  721          -   86.30864      -  91.7  450s
  1643  1720   86.30864   44  719          -   86.30864      -  88.9  456s
  1814  1902   86.30864   53  822          -   86.30864      -  86.5  464s
  2000  2105   86.30864   56  839          -   86.30864      -  83.9  482s
  2215  2283   86.30864   59  817          -   86.30864      -  80.7  605s
  2411  2412   86.30864   61  892          -   86.30864      -  79.8  984s
  2523  2412   86.30864   22  999          -   86.30864      -  82.4  988s
  2553  2571   86.30864   62  838          -   86.30864      -  82.3 1072s
  2738  2699   86.30864   63  867          -   86.30864      -  82.3 1239s
  2870  2894   86.30864   64  858          -   86.30864      -  86.0 1406s
  3087  3009   86.30864   69  857          -   86.30864      -  85.2 1528s
  3215  3240   86.30864   71  855          -   86.30864      -  87.7 1713s
  3462  3468   88.00000   75  793          -   86.30864      -  86.5 1911s
  3480  3468  110.05895   96  852          -   86.30864      -  87.1 1915s
  3719  3673   89.00000   77  766          -   86.30864      -  86.2 2072s
  3939  3907   89.00000   86  702          -   86.30864      -  86.8 2579s
  4203  4223   89.00000   95  706          -   86.30864      -  87.4 2944s
  4584  4432   90.00000  102  767          -   86.30864      -  85.2 3332s
  4599  4432  114.00000  110  978          -   86.30864      -  85.4 3340s
  4831  4676   90.00000  106  752          -   86.30864      -  89.0 3540s
  4841  4676   86.37532   61 1087          -   86.30864      -  89.2 3545s
  5066  4676  110.44706  135  778          -   86.30864      -  88.5 3551s
  5072  4676  116.00000   92  841          -   86.30864      -  88.7 3556s
  5134  4927   90.00000  116  839          -   86.30864      -  89.8 3729s

Cutting planes:
  Gomory: 23
  Lift-and-project: 2
  Cover: 215
  Implied bound: 318
  Clique: 14
  MIR: 1469
  StrongCG: 24
  Inf proof: 1
  Zero half: 1
  RLT: 500
  Relax-and-lift: 88

Explored 5409 nodes (609640 simplex iterations) in 3955.34 seconds (58.19 work units)
Thread count was 32 (of 32 available processors)

Solution count 0

Time limit reached
Best objective -, best bound 8.630864197531e+01, gap -

Unable to retrieve attribute 'X'

